c n orig vars 62
p cnf 64 98
1 2 -63 0
3 4 -63 0
5 6 -63 0
7 8 -63 0
9 10 -63 0
11 12 -63 0
13 14 -63 0
15 16 -63 0
17 18 -63 0
19 20 -63 0
21 22 -63 0
23 24 -63 0
25 26 -63 0
27 28 -63 0
29 30 -63 0
31 32 -63 0
33 39 45 51 57 -64 0
34 40 46 52 58 -64 0
35 41 47 53 59 -64 0
36 42 48 54 60 -64 0
37 43 49 55 61 -64 0
38 44 50 56 62 -64 0
-33 -34 -64 0
-33 -35 -64 0
-33 -36 -64 0
-33 -37 -64 0
-33 -38 -64 0
-34 -35 -64 0
-34 -36 -64 0
-34 -37 -64 0
-34 -38 -64 0
-35 -36 -64 0
-35 -37 -64 0
-35 -38 -64 0
-36 -37 -64 0
-36 -38 -64 0
-37 -38 -64 0
-39 -40 -64 0
-39 -41 -64 0
-39 -42 -64 0
-39 -43 -64 0
-39 -44 -64 0
-40 -41 -64 0
-40 -42 -64 0
-40 -43 -64 0
-40 -44 -64 0
-41 -42 -64 0
-41 -43 -64 0
-41 -44 -64 0
-42 -43 -64 0
-42 -44 -64 0
-43 -44 -64 0
-45 -46 -64 0
-45 -47 -64 0
-45 -48 -64 0
-45 -49 -64 0
-45 -50 -64 0
-46 -47 -64 0
-46 -48 -64 0
-46 -49 -64 0
-46 -50 -64 0
-47 -48 -64 0
-47 -49 -64 0
-47 -50 -64 0
-48 -49 -64 0
-48 -50 -64 0
-49 -50 -64 0
-51 -52 -64 0
-51 -53 -64 0
-51 -54 -64 0
-51 -55 -64 0
-51 -56 -64 0
-52 -53 -64 0
-52 -54 -64 0
-52 -55 -64 0
-52 -56 -64 0
-53 -54 -64 0
-53 -55 -64 0
-53 -56 -64 0
-54 -55 -64 0
-54 -56 -64 0
-55 -56 -64 0
-57 -58 -64 0
-57 -59 -64 0
-57 -60 -64 0
-57 -61 -64 0
-57 -62 -64 0
-58 -59 -64 0
-58 -60 -64 0
-58 -61 -64 0
-58 -62 -64 0
-59 -60 -64 0
-59 -61 -64 0
-59 -62 -64 0
-60 -61 -64 0
-60 -62 -64 0
-61 -62 -64 0
63 64 0
